sat
(:max-memory        19.92
 :memory            17.79
 :num-allocs        8409569378.00
 :rlimit-count      981670
 :sls-constraints   7188
 :sls-ddfw-flips    16994940.00
 :sls-ddfw-reinits  58
 :sls-ddfw-restarts 5910
 :sls-ddfw-shifts   4833035.00
 :sls.euf-conflict  7188
 :time              19.16
 :total-time        19.15)
